NAME : portcgen-19-18
COMMENT : portcgen N=19, seed=18
TYPE : TSP
DIMENSION : 19
EDGE_WEIGHT_TYPE : EUC_2D
NODE_COORD_SECTION
1 284293 95497
2 -265557 432593
3 156170 567482
4 152429 105684
5 89854 172406
6 -185829 190782
7 -63716 319677
8 -375407 -343537
9 132097 258806
10 280369 179293
11 388031 -265704
12 117698 -386161
13 -73853 -72095
14 87855 285599
15 170039 -564157
16 -8101 307733
17 44051 -95328
18 -13530 5750
19 313601 25320
